GLPSOL--GLPK LP/MIP Solver 5.0
Parameter(s) specified in the command line:
 --lp ../modeles/10_399.lp --log 10_399.log
Reading problem data from '../modeles/10_399.lp'...
4031 rows, 8000 columns, 27980 non-zeros
3990 integer variables, all of which are binary
12047 lines were read
GLPK Integer Optimizer 5.0
4031 rows, 8000 columns, 27980 non-zeros
3990 integer variables, all of which are binary
Preprocessing...
3940 constraint coefficient(s) were reduced
4031 rows, 7990 columns, 27970 non-zeros
3990 integer variables, all of which are binary
Scaling...
 A: min|aij| =  2.513e-05  max|aij| =  4.000e+00  ratio =  1.592e+05
GM: min|aij| =  5.006e-02  max|aij| =  1.997e+01  ratio =  3.990e+02
EQ: min|aij| =  2.506e-03  max|aij| =  1.000e+00  ratio =  3.990e+02
2N: min|aij| =  1.953e-03  max|aij| =  1.757e+00  ratio =  8.997e+02
Constructing initial basis...
Size of triangular part is 4031
Solving LP relaxation...
GLPK Simplex Optimizer 5.0
4031 rows, 7990 columns, 27970 non-zeros
      0: obj =   2.000000000e+01 inf =   4.950e+01 (21)
    209: obj =   4.998775126e-01 inf =   0.000e+00 (0)
*   621: obj =  -3.162212171e+00 inf =   3.599e-14 (0)
OPTIMAL LP SOLUTION FOUND
Integer optimization begins...
Long-step dual simplex will be used
+   621: mip =     not found yet >=              -inf        (1; 0)
+   625: >>>>>  -3.162212171e+00 >=  -3.162212171e+00   0.0% (3; 0)
+   625: mip =  -3.162212171e+00 >=     tree is empty   0.0% (0; 5)
INTEGER OPTIMAL SOLUTION FOUND
Time used:   0.1 secs
Memory used: 11.7 Mb (12233998 bytes)
